param set_len = 24;
param target_sum = 6282008491;
param values := [1] 853924472 [2] 715551747 [3] 560970440 [4] 780915067 [5] 132893762 [6] 104463281 [7] 481930663 [8] 893454966 [9] 204090595 [10] 111178576 [11] 441350715 [12] 286336125 [13] 191103263 [14] 827566754 [15] 526307987 [16] 811335587 [17] 523468234 [18] 952691190 [19] 683197488 [20] 895050676 [21] 782971615 [22] 441648050 [23] 1042186424 [24] 476656812 ;
